59312
61472
62130
59446
58951
60056
60414
61472
61885
58959
109109
109841
108489
109383
110720
110256
109016
109037
109957
107038
149659
155940
149316
152130
150353
150045
148607
149772
155075
154662
